\ Model Routes
\ LP format - for model browsing. Use MPS format to capture full model detail.
Maximize
  1035.913206194839 x0 + 1859.390499310944 x1 + 2048.560139043801 x2
   - 249.2301939667805 x3 - 17.2186063228686 x4 + 653.4391330390042 x5
   + 2323.541267452393 x6 + 1358.813058368237 x7 + 970.3669955277969 x8
   - 256.140831891889 x9 + 114.1081346221229 x10 + 850.099811287294 x11
   + 537.4021430600918 x12 + 910.7326851370422 x13 - 278.4443928850388 x14
   - 59.13410337035452 x15 + 438.5969478700737 x16 + 343.8687336675509 x17
   - 260.2482995389823 x18 + 289.9316145890127 x19 + 997.977727065218 x20
   + 871.2460913823722 x21 + 224.4691941230997 x22 - 242.5208875955131 x23
   + 569.0644431846838 x24 + 1078.881574514046 x25 + 1117.444663885629 x26
   + 593.2466045702465 x27 - 231.9775664337766 x28 - 98.47740354401077 x29
   + 972.2773799033714 x30 + 2221.629497900413 x31 + 2676.932102643751 x32
   - 231.1436095783099 x33 + 961.9954493938872 x34 + 1599.488726271573 x35
   + 2136.578037668434 x36 + 2080.429630156723 x37 + 1054.074481340015 x38
   + 2503.387012824818 x39
Subject To
 R00: x0 <= 1
 R01: x1 <= 1
 R02: x2 <= 1
 R03: x3 <= 1
 R04: x4 <= 1
 R05: x5 <= 1
 R06: x6 <= 1
 R07: x7 <= 1
 R08: x8 <= 1
 R09: x9 <= 1
 R010: x10 <= 1
 R011: x11 <= 1
 R012: x12 <= 1
 R013: x13 <= 1
 R014: x14 <= 1
 R015: x15 <= 1
 R016: x16 <= 1
 R017: x17 <= 1
 R018: x18 <= 1
 R019: x19 <= 1
 R020: x20 <= 1
 R021: x21 <= 1
 R022: x22 <= 1
 R023: x23 <= 1
 R024: x24 <= 1
 R025: x25 <= 1
 R026: x26 <= 1
 R027: x27 <= 1
 R028: x28 <= 1
 R029: x29 <= 1
 R030: x30 <= 1
 R031: x31 <= 1
 R032: x32 <= 1
 R033: x33 <= 1
 R034: x34 <= 1
 R035: x35 <= 1
 R036: x36 <= 1
 R037: x37 <= 1
 R038: x38 <= 1
 R039: x39 <= 1
 R1_0: x0 + x1 + x2 + x3 + x4 + x5 + x6 + x7 + x8 <= 1
 R1_1: x9 + x10 + x11 + x12 + x13 <= 1
 R1_2: x14 + x15 + x16 + x17 <= 1
 R1_3: x18 + x19 + x20 + x21 + x22 <= 1
 R1_4: x23 + x24 + x25 + x26 + x27 <= 1
 R1_5: x28 + x29 + x30 + x31 + x32 <= 1
 R1_6: x33 + x34 + x35 + x36 + x37 + x38 + x39 <= 1
 R2_0: 7 x0 + 7 x1 + 7 x2 + 7 x6 + 7 x7 + 7 x8 <= 7
 R2_1: 10 x10 + 10 x11 + 10 x12 + 10 x13 <= 10
 R2_2: <= 16
 R2_3: 4 x1 + 4 x2 + 4 x19 + 4 x20 + 4 x21 + 4 x22 <= 4
 R2_4: <= 0
 R2_5: 5 x4 + 5 x5 + 5 x30 + 5 x31 + 5 x32 <= 5
 R2_6: 10 x34 + 10 x35 + 10 x36 + 10 x37 + 10 x38 + 10 x39 <= 10
 R2_7: <= 6
 R2_8: <= 0
 R2_9: 12 x24 + 12 x25 + 12 x26 + 12 x27 + 12 x30 + 12 x31 + 12 x32 <= 12
 R2_10: 8 x34 + 8 x35 + 8 x36 + 8 x37 + 8 x38 + 8 x39 <= 8
 R2_11: 15 x30 + x31 + x35 + x36 <= 15
 R2_12: <= 0
 R2_13: <= 0
 R2_14: <= 0
 R2_15: 11 x0 + 11 x1 + 11 x2 + 11 x6 + 11 x24 + 11 x25 + 11 x26 <= 11
 R2_16: <= 0
 R2_17: 11 x30 <= 11
 R2_18: <= 0
 R2_19: 11 x17 + 11 x24 + 11 x25 + 11 x26 + 11 x27 <= 11
 R2_20: 13 x6 + 13 x7 + 13 x16 <= 13
 R2_21: <= 0
 R2_22: 5 x1 + 5 x2 + 10 x6 <= 10
 R2_23: 14 x31 + 14 x32 + 14 x35 + 14 x36 + 14 x37 + 14 x38 + 14 x39 <= 14
 R2_24: 10 x19 + 10 x20 + 10 x21 + 10 x22 + 10 x31 + 10 x32 <= 10
 R2_25: <= 13
 R2_26: <= 6
 R2_27: 5 x12 + 5 x31 + 5 x32 + 5 x34 + 5 x35 + 5 x36 + 5 x37 + 5 x39 <= 5
 R2_28: <= 0
 R2_29: <= 0
 R2_30: <= 0
 R2_31: <= 0
 R2_32: <= 7
 R2_33: <= 0
 R2_34: 5 x0 + 5 x1 + 5 x2 + 5 x6 + 5 x7 + 5 x8 <= 5
 R2_35: 13 x35 + 13 x36 + 13 x37 + 13 x38 + 13 x39 <= 13
 R2_36: 15 x1 + 15 x2 + 15 x6 + 15 x29 + 15 x30 + 15 x35 + 15 x36 + 15 x37
   + 15 x39 <= 16
 R2_37: 5 x19 + 5 x20 + 5 x21 + 5 x22 <= 5
 R2_38: <= 0
 R2_39: 15 x0 + 15 x1 + 15 x7 + 15 x8 <= 17
 R2_40: 15 x1 + 15 x2 + 15 x15 + 15 x16 + 15 x17 + 15 x30 + 15 x31 + 15 x32
   <= 15
 R2_41: 5 x0 + 5 x1 + 5 x2 + 5 x6 + 5 x7 + 5 x8 + 5 x31 + 5 x32 <= 5
 R2_42: 4 x6 + 4 x15 + 4 x16 + 4 x17 <= 4
 R2_43: <= 0
 R2_44: <= 0
 R2_45: <= 0
 R2_46: 9 x2 + 9 x6 <= 9
 R2_47: 7 x0 + 7 x1 + 7 x2 + 7 x8 + 7 x29 + 7 x30 + 7 x31 + 7 x32 <= 7
 R2_48: 4 x24 + 4 x25 + 4 x26 + 4 x27 <= 4
 R2_49: <= 0
 R2_50: <= 0
 R2_51: 11 x24 + 11 x27 <= 11
 R2_52: <= 0
 R2_53: 13 x24 + 13 x25 + 13 x26 + 13 x27 + 13 x30 <= 13
 R2_54: 9 x1 + 9 x2 + 9 x19 + 9 x20 + 9 x30 + 9 x35 + 9 x36 + 9 x38 <= 9
 R2_55: 8 x34 + 8 x35 + 8 x36 + 8 x37 + 8 x38 + 8 x39 <= 8
 R2_56: 6 x32 + 6 x39 <= 6
 R2_57: <= 0
 R2_58: 15 x30 + 15 x31 + 15 x32 <= 15
 R2_59: <= 0
 R2_60: 13 x1 + 13 x2 + 13 x6 + 13 x30 + 13 x31 + 13 x32 <= 13
 R2_61: <= 0
 R2_62: <= 0
 R2_63: <= 0
 R2_64: <= 0
 R2_65: <= 5
 R2_66: 7 x34 + 7 x35 + 7 x38 <= 7
 R2_67: <= 0
 R2_68: 6 x10 + 6 x11 + 6 x12 + 6 x13 <= 6
 R2_69: <= 7
 R2_70: 11 x10 + 11 x11 + 11 x13 <= 11
 R2_71: 7 x34 + 7 x35 + 7 x36 + 7 x37 + 7 x38 + 7 x39 <= 7
 R2_72: <= 0
 R2_73: 11 x0 + 11 x1 + 11 x2 + 11 x6 + 11 x7 + 11 x8 <= 11
 R2_74: 5 x29 + 5 x30 + 5 x31 + 5 x32 <= 5
 R2_75: 8 x30 + 8 x31 + 8 x32 + 8 x34 + 8 x35 + 8 x36 + 8 x37 + 8 x39 <= 8
 R2_76: 12 x1 + 12 x2 + 12 x4 + 12 x5 + 12 x6 + 12 x31 + 12 x32 <= 12
 R2_77: 7 x5 + 7 x11 + 7 x13 + 7 x20 + 7 x21 + 7 x25 + 7 x26 + 7 x36
   + 7 x37 + 7 x39 <= 7
Bounds
End
